db/data/3060441792329316295601848981262121265.z3.out
solvers/z3/run.sh: line 2: 129035 Killed                  z3 -smt2 $1
-------------------
84.823738012
